171	32	4	109	
10	10	10	10

0	0	0	0	0	0	2	1	2
1	0	1	1	1	7	3	11	4	3
2	1	0	3	5	3	2	4	3
3	4	8	5	0	7	3	8	7	5
4	0	3	5	3	8	2	7	6
5	2	5	0	3	3	3	12	10	9
6	4	0	1	7	7	2	9	8
7	4	5	2	0	10	2	10	9
8	3	5	0	4	3	3	15	13	12
9	4	4	0	5	5	4	19	15	14	13
10	7	5	5	0	3	3	19	15	14
11	3	9	0	2	7	1	12
12	0	3	5	2	10	3	22	19	14
13	0	3	7	5	3	5	22	21	18	17	16
14	0	5	4	5	7	4	21	18	17	16
15	4	4	4	0	8	4	22	18	17	16
16	7	3	3	0	6	1	20
17	4	0	5	3	7	1	20
18	1	0	2	6	6	1	20
19	6	5	2	0	6	1	21
20	4	2	4	0	7	3	26	25	23
21	7	4	0	4	7	3	26	25	23
22	0	4	5	5	4	3	28	26	24
23	4	1	4	0	5	2	28	24
24	6	4	7	0	3	2	30	27
25	1	0	5	3	10	2	29	28
26	4	5	4	0	2	1	27
27	0	2	5	4	6	1	29
28	0	4	6	4	4	1	30
29	3	0	2	4	1	1	31
30	5	2	0	5	6	1	31
31	0	0	0	0	0	0
